spring_18/ind_study/IWLS18/exps/ets18_exps/tianka_ckt/exp_2/it_3/tianka.cnf
p cnf 62 174
-4 -1 -2 0
4 1 -2 0
4 -1 2 0
-4 1 2 0
-5 2 3 0
5 -2 0
5 -3 0
-6 -3 -3 0
6 3 0
6 3 0
7 -5 -3 0
-7 5 0
-7 3 0
-8 4 7 0
8 -4 0
8 -7 0
-9 -7 -6 0
9 7 -6 0
9 -7 6 0
-9 7 6 0
10 -8 -9 0
-10 8 0
-10 9 0
1 -55 11 0
1 55 -11 0
-1 -56 11 0
-1 56 -11 0
1 -57 12 0
1 57 -12 0
-1 -58 12 0
-1 58 -12 0
1 -59 13 0
1 59 -13 0
-1 -60 13 0
-1 60 -13 0
1 -61 14 0
1 61 -14 0
-1 -62 14 0
-1 62 -14 0
2 -11 15 0
2 11 -15 0
-2 -12 15 0
-2 12 -15 0
2 -13 16 0
2 13 -16 0
-2 -14 16 0
-2 14 -16 0
3 -15 17 0
3 15 -17 0
-3 -16 17 0
-3 16 -17 0
-18 -10 -17 0
18 10 -17 0
18 -10 17 0
-18 10 17 0
-22 -19 -20 0
22 19 -20 0
22 -19 20 0
-22 19 20 0
-23 20 21 0
23 -20 0
23 -21 0
-24 -21 -21 0
24 21 0
24 21 0
25 -23 -21 0
-25 23 0
-25 21 0
-26 22 25 0
26 -22 0
26 -25 0
-27 -25 -24 0
27 25 -24 0
27 -25 24 0
-27 25 24 0
28 -26 -27 0
-28 26 0
-28 27 0
19 -55 29 0
19 55 -29 0
-19 -56 29 0
-19 56 -29 0
19 -57 30 0
19 57 -30 0
-19 -58 30 0
-19 58 -30 0
19 -59 31 0
19 59 -31 0
-19 -60 31 0
-19 60 -31 0
19 -61 32 0
19 61 -32 0
-19 -62 32 0
-19 62 -32 0
20 -29 33 0
20 29 -33 0
-20 -30 33 0
-20 30 -33 0
20 -31 34 0
20 31 -34 0
-20 -32 34 0
-20 32 -34 0
21 -33 35 0
21 33 -35 0
-21 -34 35 0
-21 34 -35 0
-36 -28 -35 0
36 28 -35 0
36 -28 35 0
-36 28 35 0
-40 -37 -38 0
40 37 -38 0
40 -37 38 0
-40 37 38 0
-41 38 39 0
41 -38 0
41 -39 0
-42 -39 -39 0
42 39 0
42 39 0
43 -41 -39 0
-43 41 0
-43 39 0
-44 40 43 0
44 -40 0
44 -43 0
-45 -43 -42 0
45 43 -42 0
45 -43 42 0
-45 43 42 0
46 -44 -45 0
-46 44 0
-46 45 0
37 -55 47 0
37 55 -47 0
-37 -56 47 0
-37 56 -47 0
37 -57 48 0
37 57 -48 0
-37 -58 48 0
-37 58 -48 0
37 -59 49 0
37 59 -49 0
-37 -60 49 0
-37 60 -49 0
37 -61 50 0
37 61 -50 0
-37 -62 50 0
-37 62 -50 0
38 -47 51 0
38 47 -51 0
-38 -48 51 0
-38 48 -51 0
38 -49 52 0
38 49 -52 0
-38 -50 52 0
-38 50 -52 0
39 -51 53 0
39 51 -53 0
-39 -52 53 0
-39 52 -53 0
-54 -46 -53 0
54 46 -53 0
54 -46 53 0
-54 46 53 0
18 0
-36 0
-54 0
-19 0
-20 0
21 0
-37 0
-38 0
-39 0
